
maxTime = 336;
%  timeLabels =  ["2017-12-04 00:00:00","2017-12-04 00:30:00","2017-12-04 01:00:00","2017-12-04 01:30:00","2017-12-04 02:00:00","2017-12-04 02:30:00"];

%  minNeeded = array2d(real_blocks, TIME, [ 
%     1,0,0,0,1,0,
%     1,0,0,0,1,0,
%     0,0,0,0,0,0,
%     1,0,0,0,0,0,
%     1,0,0,0,0,0,
%     1,0,0,0,0,0,
%         ]);   

%minNeeded = array2d(BLOCK_BY_COURSE, TIME, [ 10 | b in BLOCK_BY_COURSE, h in TIME]);
minNeeded = array2d(real_blocks, TIME, [ 

14,0,0,0,0,0,0,21,0,0,0,7,14,0,0,0,0,0,0,16,0,0,0,6,10,0,0,0,0,0,0,12,0,0,0,6,6,0,0,0,0,0,0,8,0,0,0,3,4,0,0,0,0,0,0,6,0,0,0,3,3,0,0,0,0,0,0,5,0,0,0,2,2,0,0,0,0,0,0,4,0,0,0,2,2,0,0,0,0,0,0,4,0,0,0,2,2,0,0,0,0,0,0,4,1,0,0,3,2,0,0,0,0,0,0,4,1,0,0,3,3,0,0,0,0,0,0,5,1,0,0,3,3,0,0,0,0,0,0,6,1,0,0,4,4,0,0,0,0,0,0,7,1,0,0,5,4,1,0,0,0,0,0,8,2,0,0,5,5,1,0,0,0,1,0,9,2,0,0,6,6,1,0,0,0,1,0,10,2,0,0,6,7,1,0,0,0,1,0,13,3,0,0,7,9,1,0,0,0,1,0,14,3,1,0,8,12,2,0,0,0,2,0,18,4,0,0,11,12,2,0,0,0,2,0,18,3,0,0,11,14,2,0,0,0,2,0,21,4,0,0,13,15,2,0,0,0,2,0,22,3,0,0,13,17,3,0,0,1,2,0,25,4,1,0,14,17,2,0,0,0,2,0,24,4,1,0,13,18,2,0,0,0,2,0,25,3,1,0,14,18,2,0,0,1,2,0,25,4,1,0,13,18,3,0,0,1,3,0,25,5,1,0,14,18,3,1,0,1,3,0,25,5,2,0,14,18,3,1,0,1,4,1,25,6,2,1,14,18,3,1,0,1,4,1,25,5,2,1,14,20,3,1,0,2,4,1,27,6,2,1,15,21,4,1,0,1,4,1,27,6,2,1,15,22,4,1,1,2,4,1,29,6,2,1,17,22,3,1,0,1,4,1,29,6,2,1,16,24,4,1,0,2,4,1,32,7,2,1,19,26,4,2,1,2,5,1,34,7,3,2,19,29,5,2,2,3,6,2,37,8,4,2,21,30,5,2,2,4,6,2,38,9,4,2,20,33,6,3,2,4,7,3,42,9,5,3,23,35,6,3,2,4,7,3,42,9,5,3,22,39,7,5,4,6,9,4,48,11,7,5,24,41,6,4,3,5,7,3,49,9,6,3,23,44,6,4,3,6,7,3,53,9,7,4,24,46,6,5,3,7,7,4,53,8,7,4,25,46,5,4,3,6,6,3,54,7,7,3,24,43,4,4,2,5,4,2,50,5,6,3,22,37,3,2,1,4,3,1,43,4,5,2,18,29,2,2,1,3,2,1,35,3,4,1,14,21,1,1,0,2,1,0,26,2,3,0,12,17,0,0,0,1,0,0,18,1,1,0,8,12,0,0,0,0,0,0,13,0,0,0,7,8,0,0,0,0,0,0,9,0,0,0,4,6,0,0,0,0,0,0,7,0,0,0,4,5,0,0,0,0,0,0,5,0,0,0,2,4,0,0,0,0,0,0,5,0,0,0,2,4,0,0,0,0,0,0,5,0,0,0,3,4,0,0,0,0,0,0,5,1,0,0,3,4,0,0,0,0,0,0,5,1,0,0,3,4,0,0,0,0,0,0,6,1,0,0,4,5,0,0,0,0,1,0,7,1,0,0,4,6,0,0,0,0,1,0,8,1,0,0,5,6,1,0,0,0,1,0,9,2,0,0,5,7,1,0,0,0,1,0,10,2,0,0,6,8,1,0,0,0,1,0,11,2,0,0,7,9,1,0,0,0,1,0,13,3,1,0,8,11,1,0,0,0,2,0,14,3,1,0,8,14,3,0,0,0,2,0,18,4,1,0,12,14,2,0,0,0,3,0,20,4,1,0,12,16,2,0,0,1,2,0,22,4,1,0,13,17,2,0,0,0,2,0,22,3,1,0,13,19,3,0,0,1,2,0,25,4,1,0,15,19,2,0,0,1,2,0,25,4,1,0,14,20,3,0,0,1,3,0,26,4,1,0,15,20,3,0,0,1,3,0,26,4,1,0,14,19,3,0,0,1,3,0,26,5,1,0,14,19,3,0,0,1,3,0,25,5,2,0,14,19,2,0,0,0,3,0,25,5,1,0,13,20,3,0,0,1,4,0,25,5,2,0,14,21,3,0,0,1,4,0,27,6,2,0,15,22,3,1,0,1,4,0,27,5,2,0,15,23,3,0,0,1,4,0,29,5,2,0,16,24,3,1,0,2,4,1,29,6,2,1,17,25,4,1,0,2,4,1,32,6,2,1,19,28,4,2,1,3,5,1,34,7,3,2,19,30,5,2,1,3,5,1,37,7,3,2,20,31,5,2,1,3,6,2,38,8,4,2,20,34,6,3,2,4,6,2,41,9,5,3,22,36,6,3,2,4,7,3,43,9,5,3,22,40,6,4,3,5,8,3,47,10,6,3,23,42,6,4,3,5,7,3,49,9,6,4,23,46,6,5,3,6,7,4,53,9,7,4,25,47,5,4,3,6,7,3,53,8,7,3,25,47,5,4,3,6,6,3,54,7,7,3,25,44,3,3,2,5,4,2,50,5,6,2,22,38,2,2,1,4,3,1,43,4,5,1,19,30,1,1,0,2,2,0,34,2,3,0,14,20,1,1,0,2,1,0,26,1,3,0,11,16,0,0,0,1,0,0,17,0,1,0,7,11,0,0,0,0,0,0,12,0,0,0,6,6,0,0,0,0,0,0,8,0,0,0,4,5,0,0,0,0,0,0,6,0,0,0,3,3,0,0,0,0,0,0,4,0,0,0,2,2,0,0,0,0,0,0,4,0,0,0,1,2,0,0,0,0,0,0,3,0,0,0,1,2,0,0,0,0,0,0,4,0,0,0,2,2,0,0,0,0,0,0,4,0,0,0,2,3,0,0,0,0,0,0,4,0,0,0,3,3,0,0,0,0,0,0,5,0,0,0,3,4,0,0,0,0,0,0,7,1,0,0,4,5,0,0,0,0,0,0,7,1,0,0,4,6,1,0,0,0,0,0,9,1,0,0,5,7,1,0,0,0,1,0,10,1,0,0,6,8,1,0,0,0,1,0,12,2,0,0,7,9,1,0,0,0,1,0,14,2,1,0,7,12,2,0,0,0,1,0,17,3,0,0,10,13,2,0,0,0,2,0,18,3,0,0,11,14,1,0,0,0,1,0,20,3,0,0,12,15,2,0,0,0,2,0,21,3,1,0,13,17,2,0,0,1,2,0,24,3,1,0,14,18,2,0,0,1,2,0,24,3,1,0,13,18,2,0,0,1,2,0,25,3,1,0,14,18,2,0,0,1,2,0,24,3,1,0,13,18,2,0,0,1,2,0,25,4,1,0,13,17,2,0,0,0,2,0,23,4,0,0,12,18,3,0,0,1,3,0,24,5,1,0,13,18,2,0,0,0,2,0,23,4,1,0,12,19,2,0,0,1,3,0,25,5,1,0,13,20,3,0,0,1,3,0,25,4,1,0,14,21,2,0,0,1,3,0,27,5,1,0,15,22,2,0,0,1,3,0,28,4,1,0,15,23,3,0,0,1,4,0,31,5,2,0,18,25,3,1,0,2,4,0,32,6,2,1,17,28,4,1,0,2,4,1,35,6,3,1,19,29,4,1,0,2,4,1,36,7,3,1,18,31,3,0,0,2,4,0,38,6,2,0,19,33,4,1,0,3,5,1,40,7,3,1,20,36,3,1,0,2,4,0,43,6,3,0,20,39,4,2,1,4,5,1,46,7,4,2,21,43,4,2,1,4,5,2,50,6,5,2,22,44,3,2,1,4,4,1,50,5,5,1,22,44,3,2,1,5,4,1,51,5,5,2,22,42,3,2,1,5,3,1,48,4,5,2,20,36,1,1,0,3,2,0,41,2,4,0,17,29,1,1,0,2,1,0,33,1,3,0,13,19,1,1,1,3,2,1,25,2,3,1,11,16,0,0,0,1,0,0,17,1,1,0,7,11,0,0,0,0,0,0,12,0,0,0,6,6,0,0,0,0,0,0,7,0,0,0,4,5,0,0,0,0,0,0,5,0,0,0,3,3,0,0,0,0,0,0,4,0,0,0,2,2,0,0,0,0,0,0,3,0,0,0,2,2,0,0,0,0,0,0,3,0,0,0,2,2,0,0,0,0,0,0,3,0,0,0,2,2,0,0,0,0,0,0,3,0,0,0,2,3,0,0,0,0,0,0,4,1,0,0,3,3,0,0,0,0,0,0,5,1,0,0,3,4,0,0,0,0,0,0,6,1,0,0,4,5,1,0,0,0,1,0,7,2,0,0,4,5,1,0,0,0,1,0,8,2,0,0,5,6,1,0,0,0,1,0,9,2,0,0,6,7,1,0,0,0,1,0,11,3,1,0,7,9,2,0,0,0,2,0,13,3,1,0,7,12,2,0,0,0,2,0,16,4,1,0,10,12,2,0,0,1,3,0,18,4,1,0,11,14,2,0,0,0,2,0,20,3,1,0,12,15,2,1,0,1,2,0,21,4,1,0,13,17,2,0,0,1,2,0,23,4,1,0,13,17,2,0,0,1,2,0,23,3,1,0,13


















]);   
 
 
 
 
 
% blockName =  ["p_1", "p_2", "p_3", "p_4", "l_1", "l_2", "l_3", "bc_2", "bc_3", "bc_4", "i_2", "i_3", "i_4", "off"];  
% shiftName =  ["a3731000000573uAAA","a3731000000573zAAA","a3731000000573kAAA","a373C000000GvYJQA0","off"];



timeLabels =  ["2017-12-04 00:00:00","2017-12-04 00:30:00","2017-12-04 01:00:00","2017-12-04 01:30:00","2017-12-04 02:00:00","2017-12-04 02:30:00","2017-12-04 03:00:00","2017-12-04 03:30:00","2017-12-04 04:00:00","2017-12-04 04:30:00","2017-12-04 05:00:00","2017-12-04 05:30:00","2017-12-04 06:00:00","2017-12-04 06:30:00","2017-12-04 07:00:00","2017-12-04 07:30:00","2017-12-04 08:00:00","2017-12-04 08:30:00","2017-12-04 09:00:00","2017-12-04 09:30:00","2017-12-04 10:00:00","2017-12-04 10:30:00","2017-12-04 11:00:00","2017-12-04 11:30:00","2017-12-04 12:00:00","2017-12-04 12:30:00","2017-12-04 13:00:00","2017-12-04 13:30:00","2017-12-04 14:00:00","2017-12-04 14:30:00","2017-12-04 15:00:00","2017-12-04 15:30:00","2017-12-04 16:00:00","2017-12-04 16:30:00","2017-12-04 17:00:00","2017-12-04 17:30:00","2017-12-04 18:00:00","2017-12-04 18:30:00","2017-12-04 19:00:00","2017-12-04 19:30:00","2017-12-04 20:00:00","2017-12-04 20:30:00","2017-12-04 21:00:00","2017-12-04 21:30:00","2017-12-04 22:00:00","2017-12-04 22:30:00","2017-12-04 23:00:00","2017-12-04 23:30:00","2017-12-05 00:00:00","2017-12-05 00:30:00","2017-12-05 01:00:00","2017-12-05 01:30:00","2017-12-05 02:00:00","2017-12-05 02:30:00","2017-12-05 03:00:00","2017-12-05 03:30:00","2017-12-05 04:00:00","2017-12-05 04:30:00","2017-12-05 05:00:00","2017-12-05 05:30:00","2017-12-05 06:00:00","2017-12-05 06:30:00","2017-12-05 07:00:00","2017-12-05 07:30:00","2017-12-05 08:00:00","2017-12-05 08:30:00","2017-12-05 09:00:00","2017-12-05 09:30:00","2017-12-05 10:00:00","2017-12-05 10:30:00","2017-12-05 11:00:00","2017-12-05 11:30:00","2017-12-05 12:00:00","2017-12-05 12:30:00","2017-12-05 13:00:00","2017-12-05 13:30:00","2017-12-05 14:00:00","2017-12-05 14:30:00","2017-12-05 15:00:00","2017-12-05 15:30:00","2017-12-05 16:00:00","2017-12-05 16:30:00","2017-12-05 17:00:00","2017-12-05 17:30:00","2017-12-05 18:00:00","2017-12-05 18:30:00","2017-12-05 19:00:00","2017-12-05 19:30:00","2017-12-05 20:00:00","2017-12-05 20:30:00","2017-12-05 21:00:00","2017-12-05 21:30:00","2017-12-05 22:00:00","2017-12-05 22:30:00","2017-12-05 23:00:00","2017-12-05 23:30:00","2017-12-06 00:00:00","2017-12-06 00:30:00","2017-12-06 01:00:00","2017-12-06 01:30:00","2017-12-06 02:00:00","2017-12-06 02:30:00","2017-12-06 03:00:00","2017-12-06 03:30:00","2017-12-06 04:00:00","2017-12-06 04:30:00","2017-12-06 05:00:00","2017-12-06 05:30:00","2017-12-06 06:00:00","2017-12-06 06:30:00","2017-12-06 07:00:00","2017-12-06 07:30:00","2017-12-06 08:00:00","2017-12-06 08:30:00","2017-12-06 09:00:00","2017-12-06 09:30:00","2017-12-06 10:00:00","2017-12-06 10:30:00","2017-12-06 11:00:00","2017-12-06 11:30:00","2017-12-06 12:00:00","2017-12-06 12:30:00","2017-12-06 13:00:00","2017-12-06 13:30:00","2017-12-06 14:00:00","2017-12-06 14:30:00","2017-12-06 15:00:00","2017-12-06 15:30:00","2017-12-06 16:00:00","2017-12-06 16:30:00","2017-12-06 17:00:00","2017-12-06 17:30:00","2017-12-06 18:00:00","2017-12-06 18:30:00","2017-12-06 19:00:00","2017-12-06 19:30:00","2017-12-06 20:00:00","2017-12-06 20:30:00","2017-12-06 21:00:00","2017-12-06 21:30:00","2017-12-06 22:00:00","2017-12-06 22:30:00","2017-12-06 23:00:00","2017-12-06 23:30:00","2017-12-07 00:00:00","2017-12-07 00:30:00","2017-12-07 01:00:00","2017-12-07 01:30:00","2017-12-07 02:00:00","2017-12-07 02:30:00","2017-12-07 03:00:00","2017-12-07 03:30:00","2017-12-07 04:00:00","2017-12-07 04:30:00","2017-12-07 05:00:00","2017-12-07 05:30:00","2017-12-07 06:00:00","2017-12-07 06:30:00","2017-12-07 07:00:00","2017-12-07 07:30:00","2017-12-07 08:00:00","2017-12-07 08:30:00","2017-12-07 09:00:00","2017-12-07 09:30:00","2017-12-07 10:00:00","2017-12-07 10:30:00","2017-12-07 11:00:00","2017-12-07 11:30:00","2017-12-07 12:00:00","2017-12-07 12:30:00","2017-12-07 13:00:00","2017-12-07 13:30:00","2017-12-07 14:00:00","2017-12-07 14:30:00","2017-12-07 15:00:00","2017-12-07 15:30:00","2017-12-07 16:00:00","2017-12-07 16:30:00","2017-12-07 17:00:00","2017-12-07 17:30:00","2017-12-07 18:00:00","2017-12-07 18:30:00","2017-12-07 19:00:00","2017-12-07 19:30:00","2017-12-07 20:00:00","2017-12-07 20:30:00","2017-12-07 21:00:00","2017-12-07 21:30:00","2017-12-07 22:00:00","2017-12-07 22:30:00","2017-12-07 23:00:00","2017-12-07 23:30:00","2017-12-08 00:00:00","2017-12-08 00:30:00","2017-12-08 01:00:00","2017-12-08 01:30:00","2017-12-08 02:00:00","2017-12-08 02:30:00","2017-12-08 03:00:00","2017-12-08 03:30:00","2017-12-08 04:00:00","2017-12-08 04:30:00","2017-12-08 05:00:00","2017-12-08 05:30:00","2017-12-08 06:00:00","2017-12-08 06:30:00","2017-12-08 07:00:00","2017-12-08 07:30:00","2017-12-08 08:00:00","2017-12-08 08:30:00","2017-12-08 09:00:00","2017-12-08 09:30:00","2017-12-08 10:00:00","2017-12-08 10:30:00","2017-12-08 11:00:00","2017-12-08 11:30:00","2017-12-08 12:00:00","2017-12-08 12:30:00","2017-12-08 13:00:00","2017-12-08 13:30:00","2017-12-08 14:00:00","2017-12-08 14:30:00","2017-12-08 15:00:00","2017-12-08 15:30:00","2017-12-08 16:00:00","2017-12-08 16:30:00","2017-12-08 17:00:00","2017-12-08 17:30:00","2017-12-08 18:00:00","2017-12-08 18:30:00","2017-12-08 19:00:00","2017-12-08 19:30:00","2017-12-08 20:00:00","2017-12-08 20:30:00","2017-12-08 21:00:00","2017-12-08 21:30:00","2017-12-08 22:00:00","2017-12-08 22:30:00","2017-12-08 23:00:00","2017-12-08 23:30:00","2017-12-09 00:00:00","2017-12-09 00:30:00","2017-12-09 01:00:00","2017-12-09 01:30:00","2017-12-09 02:00:00","2017-12-09 02:30:00","2017-12-09 03:00:00","2017-12-09 03:30:00","2017-12-09 04:00:00","2017-12-09 04:30:00","2017-12-09 05:00:00","2017-12-09 05:30:00","2017-12-09 06:00:00","2017-12-09 06:30:00","2017-12-09 07:00:00","2017-12-09 07:30:00","2017-12-09 08:00:00","2017-12-09 08:30:00","2017-12-09 09:00:00","2017-12-09 09:30:00","2017-12-09 10:00:00","2017-12-09 10:30:00","2017-12-09 11:00:00","2017-12-09 11:30:00","2017-12-09 12:00:00","2017-12-09 12:30:00","2017-12-09 13:00:00","2017-12-09 13:30:00","2017-12-09 14:00:00","2017-12-09 14:30:00","2017-12-09 15:00:00","2017-12-09 15:30:00","2017-12-09 16:00:00","2017-12-09 16:30:00","2017-12-09 17:00:00","2017-12-09 17:30:00","2017-12-09 18:00:00","2017-12-09 18:30:00","2017-12-09 19:00:00","2017-12-09 19:30:00","2017-12-09 20:00:00","2017-12-09 20:30:00","2017-12-09 21:00:00","2017-12-09 21:30:00","2017-12-09 22:00:00","2017-12-09 22:30:00","2017-12-09 23:00:00","2017-12-09 23:30:00","2017-12-10 00:00:00","2017-12-10 00:30:00","2017-12-10 01:00:00","2017-12-10 01:30:00","2017-12-10 02:00:00","2017-12-10 02:30:00","2017-12-10 03:00:00","2017-12-10 03:30:00","2017-12-10 04:00:00","2017-12-10 04:30:00","2017-12-10 05:00:00","2017-12-10 05:30:00","2017-12-10 06:00:00","2017-12-10 06:30:00","2017-12-10 07:00:00","2017-12-10 07:30:00","2017-12-10 08:00:00","2017-12-10 08:30:00","2017-12-10 09:00:00","2017-12-10 09:30:00","2017-12-10 10:00:00","2017-12-10 10:30:00","2017-12-10 11:00:00","2017-12-10 11:30:00","2017-12-10 12:00:00","2017-12-10 12:30:00","2017-12-10 13:00:00","2017-12-10 13:30:00","2017-12-10 14:00:00","2017-12-10 14:30:00","2017-12-10 15:00:00","2017-12-10 15:30:00","2017-12-10 16:00:00","2017-12-10 16:30:00","2017-12-10 17:00:00","2017-12-10 17:30:00","2017-12-10 18:00:00","2017-12-10 18:30:00","2017-12-10 19:00:00","2017-12-10 19:30:00","2017-12-10 20:00:00","2017-12-10 20:30:00","2017-12-10 21:00:00","2017-12-10 21:30:00","2017-12-10 22:00:00","2017-12-10 22:30:00","2017-12-10 23:00:00","2017-12-10 23:30:00"];